p cnf 252 1104
1 2 0
-1 -2 0
37 38 0
-37 -38 0
73 74 0
-73 -74 0
109 110 0
-109 -110 0
145 146 0
-145 -146 0
181 182 0
-181 -182 0
217 218 0
-217 -218 0
3 4 0
-3 -4 0
39 40 0
-39 -40 0
75 76 0
-75 -76 0
111 112 0
-111 -112 0
147 148 0
-147 -148 0
183 184 0
-183 -184 0
219 220 0
-219 -220 0
5 6 0
-5 -6 0
41 42 0
-41 -42 0
77 78 0
-77 -78 0
113 114 0
-113 -114 0
149 150 0
-149 -150 0
185 186 0
-185 -186 0
221 222 0
-221 -222 0
7 8 0
-7 -8 0
43 44 0
-43 -44 0
79 80 0
-79 -80 0
115 116 0
-115 -116 0
151 152 0
-151 -152 0
187 188 0
-187 -188 0
223 224 0
-223 -224 0
9 10 0
-9 -10 0
45 46 0
-45 -46 0
81 82 0
-81 -82 0
117 118 0
-117 -118 0
153 154 0
-153 -154 0
189 190 0
-189 -190 0
225 226 0
-225 -226 0
11 12 0
-11 -12 0
47 48 0
-47 -48 0
83 84 0
-83 -84 0
119 120 0
-119 -120 0
155 156 0
-155 -156 0
191 192 0
-191 -192 0
227 228 0
-227 -228 0
13 14 0
-13 -14 0
49 50 0
-49 -50 0
85 86 0
-85 -86 0
121 122 0
-121 -122 0
157 158 0
-157 -158 0
193 194 0
-193 -194 0
229 230 0
-229 -230 0
15 16 0
-15 -16 0
51 52 0
-51 -52 0
87 88 0
-87 -88 0
123 124 0
-123 -124 0
159 160 0
-159 -160 0
195 196 0
-195 -196 0
231 232 0
-231 -232 0
17 18 0
-17 -18 0
53 54 0
-53 -54 0
89 90 0
-89 -90 0
125 126 0
-125 -126 0
161 162 0
-161 -162 0
197 198 0
-197 -198 0
233 234 0
-233 -234 0
19 20 0
-19 -20 0
55 56 0
-55 -56 0
91 92 0
-91 -92 0
127 128 0
-127 -128 0
163 164 0
-163 -164 0
199 200 0
-199 -200 0
235 236 0
-235 -236 0
21 22 0
-21 -22 0
57 58 0
-57 -58 0
93 94 0
-93 -94 0
129 130 0
-129 -130 0
165 166 0
-165 -166 0
201 202 0
-201 -202 0
237 238 0
-237 -238 0
23 24 0
-23 -24 0
59 60 0
-59 -60 0
95 96 0
-95 -96 0
131 132 0
-131 -132 0
167 168 0
-167 -168 0
203 204 0
-203 -204 0
239 240 0
-239 -240 0
25 26 0
-25 -26 0
61 62 0
-61 -62 0
97 98 0
-97 -98 0
133 134 0
-133 -134 0
169 170 0
-169 -170 0
205 206 0
-205 -206 0
241 242 0
-241 -242 0
27 28 0
-27 -28 0
63 64 0
-63 -64 0
99 100 0
-99 -100 0
135 136 0
-135 -136 0
171 172 0
-171 -172 0
207 208 0
-207 -208 0
243 244 0
-243 -244 0
29 30 0
-29 -30 0
65 66 0
-65 -66 0
101 102 0
-101 -102 0
137 138 0
-137 -138 0
173 174 0
-173 -174 0
209 210 0
-209 -210 0
245 246 0
-245 -246 0
31 32 0
-31 -32 0
67 68 0
-67 -68 0
103 104 0
-103 -104 0
139 140 0
-139 -140 0
175 176 0
-175 -176 0
211 212 0
-211 -212 0
247 248 0
-247 -248 0
33 34 0
-33 -34 0
69 70 0
-69 -70 0
105 106 0
-105 -106 0
141 142 0
-141 -142 0
177 178 0
-177 -178 0
213 214 0
-213 -214 0
249 250 0
-249 -250 0
35 36 0
-35 -36 0
71 72 0
-71 -72 0
107 108 0
-107 -108 0
143 144 0
-143 -144 0
179 180 0
-179 -180 0
215 216 0
-215 -216 0
251 252 0
-251 -252 0
-1 -37 4 0
-1 -38 4 0
-2 -37 4 0
-2 -38 3 0
-37 -1 -73 40 0
-37 -2 -73 40 0
-37 -1 -74 40 0
-37 -2 -74 40 0
-38 -1 -73 40 0
-38 -2 -73 40 0
-38 -1 -74 40 0
-38 -2 -74 39 0
-73 -37 -109 76 0
-73 -38 -109 76 0
-73 -37 -110 76 0
-73 -38 -110 76 0
-74 -37 -109 76 0
-74 -38 -109 76 0
-74 -37 -110 76 0
-74 -38 -110 75 0
-109 -73 -145 112 0
-109 -74 -145 112 0
-109 -73 -146 112 0
-109 -74 -146 112 0
-110 -73 -145 112 0
-110 -74 -145 112 0
-110 -73 -146 112 0
-110 -74 -146 111 0
-145 -109 -181 148 0
-145 -110 -181 148 0
-145 -109 -182 148 0
-145 -110 -182 148 0
-146 -109 -181 148 0
-146 -110 -181 148 0
-146 -109 -182 148 0
-146 -110 -182 147 0
-181 -145 -217 184 0
-181 -146 -217 184 0
-181 -145 -218 184 0
-181 -146 -218 184 0
-182 -145 -217 184 0
-182 -146 -217 184 0
-182 -145 -218 184 0
-182 -146 -218 183 0
-217 -181 220 0
-217 -182 220 0
-218 -181 220 0
-218 -182 219 0
-3 -39 6 0
-3 -40 6 0
-4 -39 6 0
-4 -40 5 0
-39 -3 -75 42 0
-39 -4 -75 42 0
-39 -3 -76 42 0
-39 -4 -76 42 0
-40 -3 -75 42 0
-40 -4 -75 42 0
-40 -3 -76 42 0
-40 -4 -76 41 0
-75 -39 -111 78 0
-75 -40 -111 78 0
-75 -39 -112 78 0
-75 -40 -112 78 0
-76 -39 -111 78 0
-76 -40 -111 78 0
-76 -39 -112 78 0
-76 -40 -112 77 0
-111 -75 -147 114 0
-111 -76 -147 114 0
-111 -75 -148 114 0
-111 -76 -148 114 0
-112 -75 -147 114 0
-112 -76 -147 114 0
-112 -75 -148 114 0
-112 -76 -148 113 0
-147 -111 -183 150 0
-147 -112 -183 150 0
-147 -111 -184 150 0
-147 -112 -184 150 0
-148 -111 -183 150 0
-148 -112 -183 150 0
-148 -111 -184 150 0
-148 -112 -184 149 0
-183 -147 -219 186 0
-183 -148 -219 186 0
-183 -147 -220 186 0
-183 -148 -220 186 0
-184 -147 -219 186 0
-184 -148 -219 186 0
-184 -147 -220 186 0
-184 -148 -220 185 0
-219 -183 222 0
-219 -184 222 0
-220 -183 222 0
-220 -184 221 0
-5 -41 8 0
-5 -42 8 0
-6 -41 8 0
-6 -42 7 0
-41 -5 -77 44 0
-41 -6 -77 44 0
-41 -5 -78 44 0
-41 -6 -78 44 0
-42 -5 -77 44 0
-42 -6 -77 44 0
-42 -5 -78 44 0
-42 -6 -78 43 0
-77 -41 -113 80 0
-77 -42 -113 80 0
-77 -41 -114 80 0
-77 -42 -114 80 0
-78 -41 -113 80 0
-78 -42 -113 80 0
-78 -41 -114 80 0
-78 -42 -114 79 0
-113 -77 -149 116 0
-113 -78 -149 116 0
-113 -77 -150 116 0
-113 -78 -150 116 0
-114 -77 -149 116 0
-114 -78 -149 116 0
-114 -77 -150 116 0
-114 -78 -150 115 0
-149 -113 -185 152 0
-149 -114 -185 152 0
-149 -113 -186 152 0
-149 -114 -186 152 0
-150 -113 -185 152 0
-150 -114 -185 152 0
-150 -113 -186 152 0
-150 -114 -186 151 0
-185 -149 -221 188 0
-185 -150 -221 188 0
-185 -149 -222 188 0
-185 -150 -222 188 0
-186 -149 -221 188 0
-186 -150 -221 188 0
-186 -149 -222 188 0
-186 -150 -222 187 0
-221 -185 224 0
-221 -186 224 0
-222 -185 224 0
-222 -186 223 0
-7 -43 10 0
-7 -44 10 0
-8 -43 10 0
-8 -44 9 0
-43 -7 -79 46 0
-43 -8 -79 46 0
-43 -7 -80 46 0
-43 -8 -80 46 0
-44 -7 -79 46 0
-44 -8 -79 46 0
-44 -7 -80 46 0
-44 -8 -80 45 0
-79 -43 -115 82 0
-79 -44 -115 82 0
-79 -43 -116 82 0
-79 -44 -116 82 0
-80 -43 -115 82 0
-80 -44 -115 82 0
-80 -43 -116 82 0
-80 -44 -116 81 0
-115 -79 -151 118 0
-115 -80 -151 118 0
-115 -79 -152 118 0
-115 -80 -152 118 0
-116 -79 -151 118 0
-116 -80 -151 118 0
-116 -79 -152 118 0
-116 -80 -152 117 0
-151 -115 -187 154 0
-151 -116 -187 154 0
-151 -115 -188 154 0
-151 -116 -188 154 0
-152 -115 -187 154 0
-152 -116 -187 154 0
-152 -115 -188 154 0
-152 -116 -188 153 0
-187 -151 -223 190 0
-187 -152 -223 190 0
-187 -151 -224 190 0
-187 -152 -224 190 0
-188 -151 -223 190 0
-188 -152 -223 190 0
-188 -151 -224 190 0
-188 -152 -224 189 0
-223 -187 226 0
-223 -188 226 0
-224 -187 226 0
-224 -188 225 0
-9 -45 12 0
-9 -46 12 0
-10 -45 12 0
-10 -46 11 0
-45 -9 -81 48 0
-45 -10 -81 48 0
-45 -9 -82 48 0
-45 -10 -82 48 0
-46 -9 -81 48 0
-46 -10 -81 48 0
-46 -9 -82 48 0
-46 -10 -82 47 0
-81 -45 -117 84 0
-81 -46 -117 84 0
-81 -45 -118 84 0
-81 -46 -118 84 0
-82 -45 -117 84 0
-82 -46 -117 84 0
-82 -45 -118 84 0
-82 -46 -118 83 0
-117 -81 -153 120 0
-117 -82 -153 120 0
-117 -81 -154 120 0
-117 -82 -154 120 0
-118 -81 -153 120 0
-118 -82 -153 120 0
-118 -81 -154 120 0
-118 -82 -154 119 0
-153 -117 -189 156 0
-153 -118 -189 156 0
-153 -117 -190 156 0
-153 -118 -190 156 0
-154 -117 -189 156 0
-154 -118 -189 156 0
-154 -117 -190 156 0
-154 -118 -190 155 0
-189 -153 -225 192 0
-189 -154 -225 192 0
-189 -153 -226 192 0
-189 -154 -226 192 0
-190 -153 -225 192 0
-190 -154 -225 192 0
-190 -153 -226 192 0
-190 -154 -226 191 0
-225 -189 228 0
-225 -190 228 0
-226 -189 228 0
-226 -190 227 0
-11 -47 14 0
-11 -48 14 0
-12 -47 14 0
-12 -48 13 0
-47 -11 -83 50 0
-47 -12 -83 50 0
-47 -11 -84 50 0
-47 -12 -84 50 0
-48 -11 -83 50 0
-48 -12 -83 50 0
-48 -11 -84 50 0
-48 -12 -84 49 0
-83 -47 -119 86 0
-83 -48 -119 86 0
-83 -47 -120 86 0
-83 -48 -120 86 0
-84 -47 -119 86 0
-84 -48 -119 86 0
-84 -47 -120 86 0
-84 -48 -120 85 0
-119 -83 -155 122 0
-119 -84 -155 122 0
-119 -83 -156 122 0
-119 -84 -156 122 0
-120 -83 -155 122 0
-120 -84 -155 122 0
-120 -83 -156 122 0
-120 -84 -156 121 0
-155 -119 -191 158 0
-155 -120 -191 158 0
-155 -119 -192 158 0
-155 -120 -192 158 0
-156 -119 -191 158 0
-156 -120 -191 158 0
-156 -119 -192 158 0
-156 -120 -192 157 0
-191 -155 -227 194 0
-191 -156 -227 194 0
-191 -155 -228 194 0
-191 -156 -228 194 0
-192 -155 -227 194 0
-192 -156 -227 194 0
-192 -155 -228 194 0
-192 -156 -228 193 0
-227 -191 230 0
-227 -192 230 0
-228 -191 230 0
-228 -192 229 0
-13 -49 16 0
-13 -50 16 0
-14 -49 16 0
-14 -50 15 0
-49 -13 -85 52 0
-49 -14 -85 52 0
-49 -13 -86 52 0
-49 -14 -86 52 0
-50 -13 -85 52 0
-50 -14 -85 52 0
-50 -13 -86 52 0
-50 -14 -86 51 0
-85 -49 -121 88 0
-85 -50 -121 88 0
-85 -49 -122 88 0
-85 -50 -122 88 0
-86 -49 -121 88 0
-86 -50 -121 88 0
-86 -49 -122 88 0
-86 -50 -122 87 0
-121 -85 -157 124 0
-121 -86 -157 124 0
-121 -85 -158 124 0
-121 -86 -158 124 0
-122 -85 -157 124 0
-122 -86 -157 124 0
-122 -85 -158 124 0
-122 -86 -158 123 0
-157 -121 -193 160 0
-157 -122 -193 160 0
-157 -121 -194 160 0
-157 -122 -194 160 0
-158 -121 -193 160 0
-158 -122 -193 160 0
-158 -121 -194 160 0
-158 -122 -194 159 0
-193 -157 -229 196 0
-193 -158 -229 196 0
-193 -157 -230 196 0
-193 -158 -230 196 0
-194 -157 -229 196 0
-194 -158 -229 196 0
-194 -157 -230 196 0
-194 -158 -230 195 0
-229 -193 232 0
-229 -194 232 0
-230 -193 232 0
-230 -194 231 0
-15 -51 18 0
-15 -52 18 0
-16 -51 18 0
-16 -52 17 0
-51 -15 -87 54 0
-51 -16 -87 54 0
-51 -15 -88 54 0
-51 -16 -88 54 0
-52 -15 -87 54 0
-52 -16 -87 54 0
-52 -15 -88 54 0
-52 -16 -88 53 0
-87 -51 -123 90 0
-87 -52 -123 90 0
-87 -51 -124 90 0
-87 -52 -124 90 0
-88 -51 -123 90 0
-88 -52 -123 90 0
-88 -51 -124 90 0
-88 -52 -124 89 0
-123 -87 -159 126 0
-123 -88 -159 126 0
-123 -87 -160 126 0
-123 -88 -160 126 0
-124 -87 -159 126 0
-124 -88 -159 126 0
-124 -87 -160 126 0
-124 -88 -160 125 0
-159 -123 -195 162 0
-159 -124 -195 162 0
-159 -123 -196 162 0
-159 -124 -196 162 0
-160 -123 -195 162 0
-160 -124 -195 162 0
-160 -123 -196 162 0
-160 -124 -196 161 0
-195 -159 -231 198 0
-195 -160 -231 198 0
-195 -159 -232 198 0
-195 -160 -232 198 0
-196 -159 -231 198 0
-196 -160 -231 198 0
-196 -159 -232 198 0
-196 -160 -232 197 0
-231 -195 234 0
-231 -196 234 0
-232 -195 234 0
-232 -196 233 0
-17 -53 20 0
-17 -54 20 0
-18 -53 20 0
-18 -54 19 0
-53 -17 -89 56 0
-53 -18 -89 56 0
-53 -17 -90 56 0
-53 -18 -90 56 0
-54 -17 -89 56 0
-54 -18 -89 56 0
-54 -17 -90 56 0
-54 -18 -90 55 0
-89 -53 -125 92 0
-89 -54 -125 92 0
-89 -53 -126 92 0
-89 -54 -126 92 0
-90 -53 -125 92 0
-90 -54 -125 92 0
-90 -53 -126 92 0
-90 -54 -126 91 0
-125 -89 -161 128 0
-125 -90 -161 128 0
-125 -89 -162 128 0
-125 -90 -162 128 0
-126 -89 -161 128 0
-126 -90 -161 128 0
-126 -89 -162 128 0
-126 -90 -162 127 0
-161 -125 -197 164 0
-161 -126 -197 164 0
-161 -125 -198 164 0
-161 -126 -198 164 0
-162 -125 -197 164 0
-162 -126 -197 164 0
-162 -125 -198 164 0
-162 -126 -198 163 0
-197 -161 -233 200 0
-197 -162 -233 200 0
-197 -161 -234 200 0
-197 -162 -234 200 0
-198 -161 -233 200 0
-198 -162 -233 200 0
-198 -161 -234 200 0
-198 -162 -234 199 0
-233 -197 236 0
-233 -198 236 0
-234 -197 236 0
-234 -198 235 0
-19 -55 22 0
-19 -56 22 0
-20 -55 22 0
-20 -56 21 0
-55 -19 -91 58 0
-55 -20 -91 58 0
-55 -19 -92 58 0
-55 -20 -92 58 0
-56 -19 -91 58 0
-56 -20 -91 58 0
-56 -19 -92 58 0
-56 -20 -92 57 0
-91 -55 -127 94 0
-91 -56 -127 94 0
-91 -55 -128 94 0
-91 -56 -128 94 0
-92 -55 -127 94 0
-92 -56 -127 94 0
-92 -55 -128 94 0
-92 -56 -128 93 0
-127 -91 -163 130 0
-127 -92 -163 130 0
-127 -91 -164 130 0
-127 -92 -164 130 0
-128 -91 -163 130 0
-128 -92 -163 130 0
-128 -91 -164 130 0
-128 -92 -164 129 0
-163 -127 -199 166 0
-163 -128 -199 166 0
-163 -127 -200 166 0
-163 -128 -200 166 0
-164 -127 -199 166 0
-164 -128 -199 166 0
-164 -127 -200 166 0
-164 -128 -200 165 0
-199 -163 -235 202 0
-199 -164 -235 202 0
-199 -163 -236 202 0
-199 -164 -236 202 0
-200 -163 -235 202 0
-200 -164 -235 202 0
-200 -163 -236 202 0
-200 -164 -236 201 0
-235 -199 238 0
-235 -200 238 0
-236 -199 238 0
-236 -200 237 0
-21 -57 24 0
-21 -58 24 0
-22 -57 24 0
-22 -58 23 0
-57 -21 -93 60 0
-57 -22 -93 60 0
-57 -21 -94 60 0
-57 -22 -94 60 0
-58 -21 -93 60 0
-58 -22 -93 60 0
-58 -21 -94 60 0
-58 -22 -94 59 0
-93 -57 -129 96 0
-93 -58 -129 96 0
-93 -57 -130 96 0
-93 -58 -130 96 0
-94 -57 -129 96 0
-94 -58 -129 96 0
-94 -57 -130 96 0
-94 -58 -130 95 0
-129 -93 -165 132 0
-129 -94 -165 132 0
-129 -93 -166 132 0
-129 -94 -166 132 0
-130 -93 -165 132 0
-130 -94 -165 132 0
-130 -93 -166 132 0
-130 -94 -166 131 0
-165 -129 -201 168 0
-165 -130 -201 168 0
-165 -129 -202 168 0
-165 -130 -202 168 0
-166 -129 -201 168 0
-166 -130 -201 168 0
-166 -129 -202 168 0
-166 -130 -202 167 0
-201 -165 -237 204 0
-201 -166 -237 204 0
-201 -165 -238 204 0
-201 -166 -238 204 0
-202 -165 -237 204 0
-202 -166 -237 204 0
-202 -165 -238 204 0
-202 -166 -238 203 0
-237 -201 240 0
-237 -202 240 0
-238 -201 240 0
-238 -202 239 0
-23 -59 26 0
-23 -60 26 0
-24 -59 26 0
-24 -60 25 0
-59 -23 -95 62 0
-59 -24 -95 62 0
-59 -23 -96 62 0
-59 -24 -96 62 0
-60 -23 -95 62 0
-60 -24 -95 62 0
-60 -23 -96 62 0
-60 -24 -96 61 0
-95 -59 -131 98 0
-95 -60 -131 98 0
-95 -59 -132 98 0
-95 -60 -132 98 0
-96 -59 -131 98 0
-96 -60 -131 98 0
-96 -59 -132 98 0
-96 -60 -132 97 0
-131 -95 -167 134 0
-131 -96 -167 134 0
-131 -95 -168 134 0
-131 -96 -168 134 0
-132 -95 -167 134 0
-132 -96 -167 134 0
-132 -95 -168 134 0
-132 -96 -168 133 0
-167 -131 -203 170 0
-167 -132 -203 170 0
-167 -131 -204 170 0
-167 -132 -204 170 0
-168 -131 -203 170 0
-168 -132 -203 170 0
-168 -131 -204 170 0
-168 -132 -204 169 0
-203 -167 -239 206 0
-203 -168 -239 206 0
-203 -167 -240 206 0
-203 -168 -240 206 0
-204 -167 -239 206 0
-204 -168 -239 206 0
-204 -167 -240 206 0
-204 -168 -240 205 0
-239 -203 242 0
-239 -204 242 0
-240 -203 242 0
-240 -204 241 0
-25 -61 28 0
-25 -62 28 0
-26 -61 28 0
-26 -62 27 0
-61 -25 -97 64 0
-61 -26 -97 64 0
-61 -25 -98 64 0
-61 -26 -98 64 0
-62 -25 -97 64 0
-62 -26 -97 64 0
-62 -25 -98 64 0
-62 -26 -98 63 0
-97 -61 -133 100 0
-97 -62 -133 100 0
-97 -61 -134 100 0
-97 -62 -134 100 0
-98 -61 -133 100 0
-98 -62 -133 100 0
-98 -61 -134 100 0
-98 -62 -134 99 0
-133 -97 -169 136 0
-133 -98 -169 136 0
-133 -97 -170 136 0
-133 -98 -170 136 0
-134 -97 -169 136 0
-134 -98 -169 136 0
-134 -97 -170 136 0
-134 -98 -170 135 0
-169 -133 -205 172 0
-169 -134 -205 172 0
-169 -133 -206 172 0
-169 -134 -206 172 0
-170 -133 -205 172 0
-170 -134 -205 172 0
-170 -133 -206 172 0
-170 -134 -206 171 0
-205 -169 -241 208 0
-205 -170 -241 208 0
-205 -169 -242 208 0
-205 -170 -242 208 0
-206 -169 -241 208 0
-206 -170 -241 208 0
-206 -169 -242 208 0
-206 -170 -242 207 0
-241 -205 244 0
-241 -206 244 0
-242 -205 244 0
-242 -206 243 0
-27 -63 30 0
-27 -64 30 0
-28 -63 30 0
-28 -64 29 0
-63 -27 -99 66 0
-63 -28 -99 66 0
-63 -27 -100 66 0
-63 -28 -100 66 0
-64 -27 -99 66 0
-64 -28 -99 66 0
-64 -27 -100 66 0
-64 -28 -100 65 0
-99 -63 -135 102 0
-99 -64 -135 102 0
-99 -63 -136 102 0
-99 -64 -136 102 0
-100 -63 -135 102 0
-100 -64 -135 102 0
-100 -63 -136 102 0
-100 -64 -136 101 0
-135 -99 -171 138 0
-135 -100 -171 138 0
-135 -99 -172 138 0
-135 -100 -172 138 0
-136 -99 -171 138 0
-136 -100 -171 138 0
-136 -99 -172 138 0
-136 -100 -172 137 0
-171 -135 -207 174 0
-171 -136 -207 174 0
-171 -135 -208 174 0
-171 -136 -208 174 0
-172 -135 -207 174 0
-172 -136 -207 174 0
-172 -135 -208 174 0
-172 -136 -208 173 0
-207 -171 -243 210 0
-207 -172 -243 210 0
-207 -171 -244 210 0
-207 -172 -244 210 0
-208 -171 -243 210 0
-208 -172 -243 210 0
-208 -171 -244 210 0
-208 -172 -244 209 0
-243 -207 246 0
-243 -208 246 0
-244 -207 246 0
-244 -208 245 0
-29 -65 32 0
-29 -66 32 0
-30 -65 32 0
-30 -66 31 0
-65 -29 -101 68 0
-65 -30 -101 68 0
-65 -29 -102 68 0
-65 -30 -102 68 0
-66 -29 -101 68 0
-66 -30 -101 68 0
-66 -29 -102 68 0
-66 -30 -102 67 0
-101 -65 -137 104 0
-101 -66 -137 104 0
-101 -65 -138 104 0
-101 -66 -138 104 0
-102 -65 -137 104 0
-102 -66 -137 104 0
-102 -65 -138 104 0
-102 -66 -138 103 0
-137 -101 -173 140 0
-137 -102 -173 140 0
-137 -101 -174 140 0
-137 -102 -174 140 0
-138 -101 -173 140 0
-138 -102 -173 140 0
-138 -101 -174 140 0
-138 -102 -174 139 0
-173 -137 -209 176 0
-173 -138 -209 176 0
-173 -137 -210 176 0
-173 -138 -210 176 0
-174 -137 -209 176 0
-174 -138 -209 176 0
-174 -137 -210 176 0
-174 -138 -210 175 0
-209 -173 -245 212 0
-209 -174 -245 212 0
-209 -173 -246 212 0
-209 -174 -246 212 0
-210 -173 -245 212 0
-210 -174 -245 212 0
-210 -173 -246 212 0
-210 -174 -246 211 0
-245 -209 248 0
-245 -210 248 0
-246 -209 248 0
-246 -210 247 0
-31 -67 34 0
-31 -68 34 0
-32 -67 34 0
-32 -68 33 0
-67 -31 -103 70 0
-67 -32 -103 70 0
-67 -31 -104 70 0
-67 -32 -104 70 0
-68 -31 -103 70 0
-68 -32 -103 70 0
-68 -31 -104 70 0
-68 -32 -104 69 0
-103 -67 -139 106 0
-103 -68 -139 106 0
-103 -67 -140 106 0
-103 -68 -140 106 0
-104 -67 -139 106 0
-104 -68 -139 106 0
-104 -67 -140 106 0
-104 -68 -140 105 0
-139 -103 -175 142 0
-139 -104 -175 142 0
-139 -103 -176 142 0
-139 -104 -176 142 0
-140 -103 -175 142 0
-140 -104 -175 142 0
-140 -103 -176 142 0
-140 -104 -176 141 0
-175 -139 -211 178 0
-175 -140 -211 178 0
-175 -139 -212 178 0
-175 -140 -212 178 0
-176 -139 -211 178 0
-176 -140 -211 178 0
-176 -139 -212 178 0
-176 -140 -212 177 0
-211 -175 -247 214 0
-211 -176 -247 214 0
-211 -175 -248 214 0
-211 -176 -248 214 0
-212 -175 -247 214 0
-212 -176 -247 214 0
-212 -175 -248 214 0
-212 -176 -248 213 0
-247 -211 250 0
-247 -212 250 0
-248 -211 250 0
-248 -212 249 0
-33 -69 36 0
-33 -70 36 0
-34 -69 36 0
-34 -70 35 0
-69 -33 -105 72 0
-69 -34 -105 72 0
-69 -33 -106 72 0
-69 -34 -106 72 0
-70 -33 -105 72 0
-70 -34 -105 72 0
-70 -33 -106 72 0
-70 -34 -106 71 0
-105 -69 -141 108 0
-105 -70 -141 108 0
-105 -69 -142 108 0
-105 -70 -142 108 0
-106 -69 -141 108 0
-106 -70 -141 108 0
-106 -69 -142 108 0
-106 -70 -142 107 0
-141 -105 -177 144 0
-141 -106 -177 144 0
-141 -105 -178 144 0
-141 -106 -178 144 0
-142 -105 -177 144 0
-142 -106 -177 144 0
-142 -105 -178 144 0
-142 -106 -178 143 0
-177 -141 -213 180 0
-177 -142 -213 180 0
-177 -141 -214 180 0
-177 -142 -214 180 0
-178 -141 -213 180 0
-178 -142 -213 180 0
-178 -141 -214 180 0
-178 -142 -214 179 0
-213 -177 -249 216 0
-213 -178 -249 216 0
-213 -177 -250 216 0
-213 -178 -250 216 0
-214 -177 -249 216 0
-214 -178 -249 216 0
-214 -177 -250 216 0
-214 -178 -250 215 0
-249 -213 252 0
-249 -214 252 0
-250 -213 252 0
-250 -214 251 0
-35 -71 -107 -143 -179 -215 -251 0
-36 -72 -108 -144 -180 -216 -252 0
-1 -37 -73 -109 -145 -181 -217 0
-2 -38 -74 -110 -146 -182 -218 0
-3 -39 -75 -111 -147 -183 -219 0
-4 -40 -76 -112 -148 -184 -220 0
-5 -41 -77 -113 -149 -185 -221 0
-6 -42 -78 -114 -150 -186 -222 0
-7 -43 -79 -115 -151 -187 -223 0
-8 -44 -80 -116 -152 -188 -224 0
-9 -45 -81 -117 -153 -189 -225 0
-10 -46 -82 -118 -154 -190 -226 0
-11 -47 -83 -119 -155 -191 -227 0
-12 -48 -84 -120 -156 -192 -228 0
-13 -49 -85 -121 -157 -193 -229 0
-14 -50 -86 -122 -158 -194 -230 0
-15 -51 -87 -123 -159 -195 -231 0
-16 -52 -88 -124 -160 -196 -232 0
-17 -53 -89 -125 -161 -197 -233 0
-18 -54 -90 -126 -162 -198 -234 0
-19 -55 -91 -127 -163 -199 -235 0
-20 -56 -92 -128 -164 -200 -236 0
-21 -57 -93 -129 -165 -201 -237 0
-22 -58 -94 -130 -166 -202 -238 0
-23 -59 -95 -131 -167 -203 -239 0
-24 -60 -96 -132 -168 -204 -240 0
-25 -61 -97 -133 -169 -205 -241 0
-26 -62 -98 -134 -170 -206 -242 0
-27 -63 -99 -135 -171 -207 -243 0
-28 -64 -100 -136 -172 -208 -244 0
-29 -65 -101 -137 -173 -209 -245 0
-30 -66 -102 -138 -174 -210 -246 0
-31 -67 -103 -139 -175 -211 -247 0
-32 -68 -104 -140 -176 -212 -248 0
-33 -69 -105 -141 -177 -213 -249 0
-34 -70 -106 -142 -178 -214 -250 0
